NAME : cgl_17.4422.tour
COMMENT : Length = 4422
COMMENT : Found by LKH-3 [Keld Helsgaun] Thu Jun 26 21:26:48 2025
TYPE : TOUR
DIMENSION : 18
TOUR_SECTION
6
7
8
17
14
13
16
12
10
9
11
15
18
3
1
2
4
5
-1
EOF
